NAME: instance_2599
TYPE: TSP
DIMENSION: 20
EDGE_WEIGHT_TYPE: EUC_2D
NODE_COORD_SECTION
0 74.50 31.69
1 33.49 38.04
2 67.21 34.95
3 21.35 48.86
4 34.34 57.09
5 95.50 66.77
6 25.48 59.86
7 13.92 6.67
8 89.48 4.96
9 67.45 43.46
10 87.34 87.24
11 16.51 35.11
12 2.91 77.66
13 91.36 3.29
14 83.54 57.22
15 28.08 7.14
16 41.16 38.03
17 73.74 52.51
18 25.94 73.87
19 93.44 23.31
EOF
